treewidth/data/SymplecticPolarGraph_4_3.gr
p tw 40 240
1 2
1 13
1 24
1 6
1 7
1 8
1 9
1 10
1 21
1 22
1 23
1 25
2 13
2 24
2 35
2 36
2 37
2 38
2 39
2 40
2 3
2 4
2 5
13 24
13 17
13 18
13 19
13 20
13 26
13 27
13 28
13 29
13 30
24 11
24 12
24 14
24 15
24 16
24 31
24 32
24 33
24 34
35 37
35 3
35 6
35 8
35 11
35 14
35 18
35 22
35 26
35 28
35 32
36 38
36 39
36 6
36 8
36 12
36 15
36 16
36 22
36 27
36 29
36 30
37 3
37 7
37 9
37 10
37 12
37 15
37 16
37 17
37 19
37 20
38 39
38 7
38 9
38 10
38 18
38 26
38 28
38 31
38 33
38 34
39 11
39 14
39 17
39 19
39 20
39 21
39 23
39 25
39 32
40 4
40 5
40 6
40 8
40 17
40 19
40 20
40 22
40 31
40 33
40 34
3 21
3 23
3 25
3 27
3 29
3 30
3 31
3 33
3 34
4 5
4 12
4 15
4 16
4 18
4 21
4 23
4 25
4 26
4 28
5 7
5 9
5 10
5 11
5 14
5 27
5 29
5 30
5 32
6 7
6 11
6 12
6 17
6 21
6 26
6 27
6 31
7 14
7 15
7 20
7 21
7 28
7 29
7 34
8 9
8 14
8 15
8 18
8 19
8 25
8 30
8 34
9 16
9 17
9 25
9 26
9 27
9 32
9 33
10 11
10 12
10 18
10 19
10 22
10 23
10 30
10 31
11 16
11 20
11 25
11 26
11 30
11 34
12 14
12 19
12 25
12 27
12 28
12 33
14 17
14 18
14 23
14 29
14 33
15 20
15 23
15 26
15 30
15 31
15 32
16 17
16 18
16 21
16 22
16 29
16 34
17 23
17 28
17 30
17 31
18 20
18 21
18 27
18 31
19 21
19 26
19 29
19 32
19 34
20 22
20 25
20 27
20 33
21 30
21 32
21 33
22 23
22 28
22 29
22 32
22 33
23 26
23 27
23 34
25 28
25 29
25 31
26 29
26 33
27 32
27 34
28 30
28 32
28 34
29 31
30 33
31 32
