treewidth/data/SymplecticPolarGraph_4_3.td
c width = 28, time = 10.944396
s td 9 29 40
b 1 4 5 6 7 8 9 10 11 13 16 19 20 21 22 23 24 25 27 28 29 30 31 33 35 36 37 38 39 40
b 2 3 4 5 6 7 8 9 10 11 13 16 19 21 22 23 24 25 27 28 29 30 31 33 35 36 37 38 39 40
b 3 1 2 3 4 5 6 7 8 9 10 13 21 22 23 24 25 35 36 37 38 39 40
b 4 3 7 8 11 16 19 23 24 27 28 34 38 40
b 5 4 5 6 7 8 9 10 13 14 16 19 20 21 23 24 25 27 28 29 30 31 33 35 36 37 38 39 40
b 6 4 6 10 12 14 19 24 25 27 28 33 36 37
b 7 6 9 13 14 16 17 23 28 30 31 37 39 40
b 8 4 8 10 13 14 16 18 20 21 27 31 35 38
b 9 4 5 6 7 8 9 11 13 15 19 20 21 22 23 24 26 27 28 29 30 31 32 33 35 36 37 38 39
2 3
2 4
1 2
5 6
5 7
5 8
1 5
1 9
